NAME : instances/clustered-mixed-tsp/instance-29.tsp
COMMENT : No Comment
TYPE : TSP
DIMENSION: 46
EDGE_WEIGHT_TYPE : EUC_2D
NODE_COORD_SECTION
1 1662 1819 
2 1154 1127 
3 990 641 
4 300 212 
5 418 83 
6 708 1746 
7 692 514 
8 1315 1781 
9 501 1157 
10 1793 413 
11 1628 185 
12 22 757 
13 314 1635 
14 1300 203 
15 499 421 
16 1360 1878 
17 1782 946 
18 485 1462 
19 1195 76 
20 360 1572 
21 1146 1518 
22 558 1183 
23 1997 1165 
24 1072 1508 
25 46 1316 
26 1507 513 
27 347 620 
28 1787 45 
29 749 349 
30 1855 25 
31 372 1746 
32 571 1769 
33 1377 1054 
34 1706 159 
35 243 1458 
36 1783 592 
37 1740 622 
38 788 1334 
39 1816 49 
40 1840 286 
41 908 1478 
42 710 245 
43 926 913 
44 534 573 
45 1201 378 
46 774 1637 
EOF
